
-11.7
-11.5
-11.2
-11.0
-10.8
-10.5
-10.3
-10.3
-10.1
-10.0
-10.0
-10.0
-9.8
-9.8
-9.7
-9.6
-9.5
-9.4
-9.4
-9.4
-9.4
-9.4
-9.4
-9.4
-9.4
-9.4
-9.4
-9.4
-9.4
-9.4
-9.4
-9.4
-9.4
-12.3
-11.9
-11.2
-11.2
-10.9
-10.7
-10.5
-10.5
-10.4
-10.3
-10.3
-10.1
-10.1
-10.1
-10.1
-10.0
-9.9
-9.7
-9.6
-9.6
-9.6
-9.6
-9.6
-9.5
-9.5
-9.5
-9.5
-9.5
-9.5
-9.5
-9.5
-9.5
-9.5
-9.5
-9.5
-9.5
-9.5
-9.5
-9.5